80 9356941
25 26 21 28 66 72 75 69 64 78 51 46 79 44 68 42 7 38 61 16 41 53 34 59 8 20 30 39 35 71 13 19 60 9 63 57 5 54 65 40 36 49 37 24 31 18 50 76 4 32 11 10 22 6 47 58 23 2 3 55 48 33 62 80 17 27 67 70 52 14 15 77 1 43 56 73 45 29 12 74 
